<?xml version = "1.0" standalone="yes"?>
<!-- This file has been generated by DOcplex version 2.23.222  -->
<CPLEXSolution version="1.0">
 <header
   problemName="CVRP"
   objectiveValue="34011.5"
  />
 <variables>
  <variable name="x_0_2" index="1" value="1.00000"/>
  <variable name="x_0_3" index="2" value="1.00000"/>
  <variable name="x_0_4" index="3" value="1.00000"/>
  <variable name="x_0_7" index="6" value="1.00000"/>
  <variable name="x_0_8" index="7" value="1.00000"/>
  <variable name="x_0_9" index="8" value="1.00000"/>
  <variable name="x_0_10" index="9" value="1.00000"/>
  <variable name="x_0_11" index="10" value="1.00000"/>
  <variable name="x_0_12" index="11" value="1.00000"/>
  <variable name="x_0_15" index="14" value="1.00000"/>
  <variable name="x_0_16" index="15" value="1.00000"/>
  <variable name="x_0_17" index="16" value="1.00000"/>
  <variable name="x_0_18" index="17" value="1.00000"/>
  <variable name="x_0_20" index="19" value="1.00000"/>
  <variable name="x_0_21" index="20" value="1.00000"/>
  <variable name="x_0_22" index="21" value="1.00000"/>
  <variable name="x_0_24" index="23" value="1.00000"/>
  <variable name="x_0_26" index="25" value="1.00000"/>
  <variable name="x_0_28" index="27" value="1.00000"/>
  <variable name="x_1_27" index="55" value="1.00000"/>
  <variable name="x_2_0" index="58" value="1.00000"/>
  <variable name="x_3_0" index="87" value="1.00000"/>
  <variable name="x_4_0" index="116" value="1.00000"/>
  <variable name="x_5_0" index="145" value="1.00000"/>
  <variable name="x_6_1" index="175" value="1.00000"/>
  <variable name="x_7_0" index="203" value="1.00000"/>
  <variable name="x_8_0" index="232" value="1.00000"/>
  <variable name="x_9_14" index="274" value="1.00000"/>
  <variable name="x_10_0" index="290" value="1.00000"/>
  <variable name="x_11_0" index="319" value="1.00000"/>
  <variable name="x_12_23" index="370" value="1.00000"/>
  <variable name="x_13_0" index="377" value="1.00000"/>
  <variable name="x_14_0" index="406" value="1.00000"/>
  <variable name="x_15_0" index="435" value="1.00000"/>
  <variable name="x_16_0" index="464" value="1.00000"/>
  <variable name="x_17_6" index="499" value="1.00000"/>
  <variable name="x_18_13" index="535" value="1.00000"/>
  <variable name="x_19_0" index="551" value="1.00000"/>
  <variable name="x_20_0" index="580" value="1.00000"/>
  <variable name="x_21_19" index="628" value="1.00000"/>
  <variable name="x_22_0" index="638" value="1.00000"/>
  <variable name="x_23_0" index="667" value="1.00000"/>
  <variable name="x_24_5" index="701" value="1.00000"/>
  <variable name="x_25_0" index="725" value="1.00000"/>
  <variable name="x_26_29" index="782" value="1.00000"/>
  <variable name="x_27_0" index="783" value="1.00000"/>
  <variable name="x_28_0" index="812" value="1.00000"/>
  <variable name="x_29_25" index="866" value="1.00000"/>
  <variable name="u_1" index="870" value="60.00000"/>
  <variable name="u_2" index="871" value="52.00000"/>
  <variable name="u_3" index="872" value="41.00000"/>
  <variable name="u_4" index="873" value="63.00000"/>
  <variable name="u_5" index="874" value="65.00000"/>
  <variable name="u_6" index="875" value="32.00000"/>
  <variable name="u_7" index="876" value="64.00000"/>
  <variable name="u_8" index="877" value="65.00000"/>
  <variable name="u_9" index="878" value="5.00000"/>
  <variable name="u_10" index="879" value="65.00000"/>
  <variable name="u_11" index="880" value="56.00000"/>
  <variable name="u_12" index="881" value="60.00000"/>
  <variable name="u_13" index="882" value="65.00000"/>
  <variable name="u_14" index="883" value="47.00000"/>
  <variable name="u_15" index="884" value="47.00000"/>
  <variable name="u_16" index="885" value="56.00000"/>
  <variable name="u_17" index="886" value="29.00000"/>
  <variable name="u_18" index="887" value="39.00000"/>
  <variable name="u_19" index="888" value="64.00000"/>
  <variable name="u_20" index="889" value="41.00000"/>
  <variable name="u_21" index="890" value="37.00000"/>
  <variable name="u_22" index="891" value="52.00000"/>
  <variable name="u_23" index="892" value="65.00000"/>
  <variable name="u_24" index="893" value="54.00000"/>
  <variable name="u_25" index="894" value="64.00000"/>
  <variable name="u_26" index="895" value="37.00000"/>
  <variable name="u_27" index="896" value="61.00000"/>
  <variable name="u_28" index="897" value="65.00000"/>
  <variable name="u_29" index="898" value="43.00000"/>
 </variables>
</CPLEXSolution>
